c defined variables: 
p cnf 86 57
a 1 2 3 4 5 6 7 8 9 10 11 12 13 14 0
d 15 1 2 0
d 16 1 9 0
d 17 7 0
d 18 3 4 11 0
d 19 3 11 0
d 20 1 5 6 7 8 9 11 0
d 21 8 9 13 0
d 22 4 6 8 0
d 23 1 0
d 24 3 12 14 0
d 25 1 2 5 6 12 13 14 0
d 26 10 11 12 0
d 27 5 9 12 13 0
d 28 5 0
1 -3 -15 -16 -19 0
-2 7 -15 17 -19 0
1 8 -15 -18 -20 0
-3 11 15 18 -20 0
7 -11 17 -19 20 0
3 4 18 -19 20 0
3 11 18 19 -22 0
6 -8 17 19 22 0
2 6 15 22 -23 0
-7 8 18 20 23 0
-2 -14 -15 18 -24 0
3 -11 -18 23 -24 0
-7 -12 20 -23 24 0
2 -12 -15 -17 -25 0
3 5 15 -19 -25 0
3 5 -15 19 -25 0
3 4 -18 19 -25 0
-1 12 15 -21 -25 0
-12 13 15 21 -25 0
2 3 21 -24 -25 0
12 14 16 17 25 0
-1 13 15 -18 25 0
-6 -13 -16 19 25 0
8 -11 17 -20 25 0
-7 -11 -19 20 25 0
2 -4 16 22 25 0
-13 -14 16 -23 25 0
-10 -12 -15 16 -26 0
-10 -14 -15 -25 -26 0
9 -11 -16 18 26 0
-1 8 -20 -23 26 0
5 -12 19 -25 26 0
-5 12 -17 25 26 0
-2 -5 18 25 26 0
-9 11 17 -19 -27 0
9 12 15 -20 -27 0
8 12 -20 -22 -27 0
13 14 17 25 -27 0
-9 11 18 -26 -27 0
-8 12 -22 -26 -27 0
-5 13 -15 -16 27 0
-5 -11 17 -20 27 0
-3 -8 -19 -20 27 0
1 -5 -16 20 27 0
2 5 22 25 27 0
5 7 -20 26 27 0
-7 10 20 26 27 0
9 11 16 19 -28 0
-6 11 17 -20 -28 0
8 9 18 -20 -28 0
1 13 -15 -21 -28 0
9 13 21 -22 -28 0
1 4 18 -23 -28 0
-3 7 -17 24 -28 0
-11 13 18 25 -28 0
-5 -10 -16 -26 -28 0
-10 11 -20 26 -28 0
